100 6 100
69 77 19 64 26 30 7 55 58 29 72 44 77 65 67 10 80 72 8 26 41 62 92 93 70 18 46 44 37 77 13 14 48 29 92 79 37 47 89 18 19 33 47 36 85 66 46 65 38 6 43 31 21 35 77 91 6 75 87 43 52 53 57 1 82 1 32 71 48 21 41 19 54 88 55 39 6 53 57 44 60 76 81 36 53 24 42 28 63 37 33 16 46 86 51 47 18 22 95 39 
